$ ========================================================================
$
$                            ORNL Test database
$ 
$ ========================================================================
$-------------------------------------------------------------------------
$ Author:              Ying Yang, Sunyong Kwon
$ Date:        2023-11-18
$ Description: This database is private collection from Ying Yang.
$ It must not be distributed without permission.
$
$
$ 
$ ALLOY ELEMENTS (7):  Al Cu Mg Si
$
$ ATTENTION: Do not go over 78 charactors in a line. It causes an error in
$ Thermo-Calc.
$--------------------------------------------------------------------------

$ >>>>>>>>>>>>>>>>>>>>>>>>>>>>>>>>>>>>>>>>>>>>>>>>>>>>>>>>>>>>>>>>>>>>>>>>>
$ Define ELEMENTS:
$ ------------------------------------------------------------------------
$ ELEMENTS    SER                       g/mol       H298        S298
$ ------------------------------------------------------------------------
 ELEMENT /-   ELECTRON_GAS              0.0000E+00  0.0000E+00  0.0000E+00!
 ELEMENT VA   VACUUM                    0.0000E+00  0.0000E+00  0.0000E+00!
 ELEMENT AL   FCC_A1                    2.6982E+01  4.5773E+03  2.8322E+01!
 ELEMENT CU   FCC_A1                    6.3546E+01  5.0041E+03  3.3150E+01!
 ELEMENT MG   HCP_A3                    2.4305E+01  4.9980E+03  3.2671E+01!
 ELEMENT SI   DIAMOND_A4                2.8085E+01  3.2175E+03  1.8820E+01!
$ <<<<<<<<<<<<<<<<<<<<<<<<<<<<<<<<<<<<<<<<<<<<<<<<<<<<<<<<<<<<<<<<<<<<<<<<<


$ >>>>>>>>>>>>>>>>>>>>>>>>>>>>>>>>>>>>>>>>>>>>>>>>>>>>>>>>>>>>>>>>>>>>>>>>>
$ Define SPECIES:
$ -------------------------------------------------------------------------
$ Species    Name                  CONST/Charge
$ -------------------------------------------------------------------------
 SPECIES     CU2                   CU2 !
$ <<<<<<<<<<<<<<<<<<<<<<<<<<<<<<<<<<<<<<<<<<<<<<<<<<<<<<<<<<<<<<<<<<<<<<<<<

$ >>>>>>>>>>>>>>>>>>>>>>>>>>>>>>>>>>>>>>>>>>>>>>>>>>>>>>>>>>>>>>>>>>>>>>>>>
$ Define Functions
$ -------------------------------------------------------------------------
$FUNCTION Name           LowTemp(K) Equation;             HighTemp(K) Y/N !
$ -------------------------------------------------------------------------

 Function GHSERAL        298.15   -7976.15+137.071542*T-24.3671976*T*LN(T)
     -.001884662*T**2-8.77664E-07*T**3+74092*T**(-1);     700 Y
     -11276.24+223.02695*T-38.5844296*T*LN(T)+.018531982*T**2 
     -5.764227E-06*T**3+74092*T**(-1);                    933.6 Y
     -11277.683+188.661987*T-31.748192*T*LN(T)
     -1.234264E+28*T**(-9);                               2900 N !
     
 Function GHSERCU        298.15   -7770.458+130.485403*T-24.112392*T*LN(T) 
     -.00265684*T**2+1.29223E-07*T**3+52478*T**(-1);      1358.01 Y
     -13542.33+183.804197*T-31.38*T*LN(T)+3.64643E+29*T**(-9); 3200 N !

 Function GHSERMG        298.15   -8367.34+143.677875*T-26.1849782*T*LN(T)
     +4.858E-04*T**2-1.393669E-06*T**3+78950*T**(-1);       923 Y
     -14130.185+204.718543*T-34.3088*T*LN(T)+1.038192E+28*T**(-9); 3000 N !

 Function GHSERSI        298.15   -8162.609+137.236859*T-22.8317533*T*LN(T)
     -.001912904*T**2-3.552E-09*T**3+176667*T**(-1);            1687 Y
     -9457.642+167.281367*T-27.196*T*LN(T)-4.20369E+30*T**(-9); 3600 N !

 Function GLIQAL         298.15   +11005.553-11.840873*T+7.9401E-20*T**7 
     +GHSERAL;                                              933.6 Y
     +10481.974-11.252014*T+1.234264E+28*T**(-9)+GHSERAL;   2900 N !

 Function GLIQCU         298.15   +12964.84-9.510243*T-5.83932E-21*T**7 
     +GHSERCU;                                              1358.01 Y
     +13495.4-9.920463*T-3.64643E+29*T**(-9)+GHSERCU;       3200 N !

 Function GLIQMG         298.15   +8202.24-8.83693*T-8.01759E-20*T**7 
     +GHSERMG;                                              923 Y
     +8690.32-9.39216*T-1.03819E+28*T**(-9)+GHSERMG;        3000 N !

 Function GLIQSI         298.15   +50696.4-30.0994*T +2.09307E-21*T**7
     +GHSERSI;                                              1687 Y
     +49828.2-29.5591*T+4.20369E+30*T**(-9)+GHSERSI;        6000 N !

 Function GBCCAL         298.15   +10083-4.813*T+GHSERAL;   6000 N !
 Function GBCCCU         298.15   +4017-1.255*T+GHSERCU;    6000 N !
 Function GBCCSI         298.15   +47000-22.5*T+GHSERSI;    6000 N !
 Function GHCPAL         298.15   +5481-1.8*T+GHSERAL;      6000 N !
 Function GBCTCU         298.15   +4184+GHSERCU;            3200 N !
 Function ALCUK4         298.15   -48025.3+14.55872*T;      6000 N !
 Function ALCUK5         298.15   +187178.0+3.02112*T;      6000 N !
 Function ALCUK6         298.15   +254993.9-8.16271*T;      6000 N !
$ <<<<<<<<<<<<<<<<<<<<<<<<<<<<<<<<<<<<<<<<<<<<<<<<<<<<<<<<<<<<<<<<<<<<<<<<<

$ >>>>>>>>>>>>>>>>>>>>>>>>>>>>>>>>>>>>>>>>>>>>>>>>>>>>>>>>>>>>>>>>>>>>>>>>>
$ Type definitions
$ -------------------------------------------------------------------------
 TYPE_DEFINITION % SEQ * !
 DEFINE_SYSTEM_DEFAULT SPECIES 2 !
 Default_Command DEF_SYS_ELEMENT VA !
 Type_Definition A GES AMEND_PHASE_DESCRIPTION FCC_A1 MAGNETIC -3 0.28 !
 Type_Definition B GES AMEND_PHASE_DESCRIPTION HCP_A3 MAGNETIC -3 0.28 !
 Type_Definition C GES AMEND_PHASE_DESCRIPTION CBCC_A12 MAGNETIC -3 0.28 !
 Type_Definition D GES AMEND_PHASE_DESCRIPTION BCC_A2 MAGNETIC -1 0.4 !
 Type_Definition F GES AMEND_PHASE_DESCRIPTION ALTI3 MAGNETIC -3 0.28 !
 Type_Definition G GES AMEND_PHASE_DESCRIPTION ALTI MAGNETIC -1 0.4 !
 Type_Definition Y GES AMEND_PHASE_DESCRIPTION BCC_B2 DIS_PART BCC_A2 !
$ <<<<<<<<<<<<<<<<<<<<<<<<<<<<<<<<<<<<<<<<<<<<<<<<<<<<<<<<<<<<<<<<<<<<<<<<<

 PHASE LIQUID:L % 1 1 !
 CONST LIQUID:L :AL,CU,MG,SI:!
     PARAM G(LIQUID,AL;0) 298.15   +GLIQAL; 3000 N !
     PARAM G(LIQUID,CU;0) 298.15   +GLIQCU; 3200 N !
     PARAM G(LIQUID,MG;0) 298.15   +GLIQMG; 3000 N !
     PARAM G(LIQUID,SI;0) 298.15   +GLIQSI; 3000 N !
     PARAM G(LIQUID,AL,CU;0) 298.15   -66622+8.1*T; 6000 N !
     PARAM G(LIQUID,AL,CU;1) 298.15   +46800-90.8*T+10*T*LN(T); 6000 N !
     PARAM G(LIQUID,AL,CU;2) 298.15   -2812; 6000 N !
     PARAM G(LIQUID,AL,MG;0) 298.15   -11200+9.578*T; 6000 N !
     PARAM G(LIQUID,AL,SI;0) 298.15   -16914.24+3.398586*T; 6000 N !
     PARAM G(LIQUID,AL,SI;1) 298.15   1448.22; 6000 N !
     PARAM G(LIQUID,AL,SI;2) 298.15   0; 6000 N !
     PARAM G(LIQUID,CU,MG;0) 298.15   -35864.5+2.84952*T; 6000 N !
     PARAM G(LIQUID,CU,MG;1) 298.15   -7090.9; 6000 N !
     PARAM G(LIQUID,CU,SI;0) 298.15   -38763.512+12*T; 6000 N !
     PARAM G(LIQUID,CU,SI;1) 298.15   -52431.182+27.4571*T; 6000 N !
     PARAM G(LIQUID,CU,SI;2) 298.15   -29426.511+14.775*T; 6000 N !
     PARAM G(LIQUID,MG,SI;0) 298.15   -73623.6+27.321133*T; 6000 N !
     PARAM G(LIQUID,MG,SI;1) 298.15   -30000+21.438154*T; 6000 N !
     PARAM G(LIQUID,MG,SI;2) 298.15   +44417.4-28.375494*T; 6000 N !
     PARAM G(LIQUID,AL,CU,MG;0) 298.15   -16509.79+20*T; 3000 N !
     PARAM G(LIQUID,AL,CU,MG;1) 298.15   -81940.75+20*T; 3000 N !
     PARAM G(LIQUID,AL,CU,MG;2) 298.15   -33212.4+20*T; 3000 N !
     PARAM G(LIQUID,AL,CU,SI;0) 298.15   31500; 6000 N !
     PARAM G(LIQUID,AL,CU,SI;1) 298.15   39800; 6000 N !
     PARAM G(LIQUID,AL,CU,SI;2) 298.15   0; 6000 N !
     PARAM G(LIQUID,AL,MG,SI;0) 298.15    20000-6*T; 6000 N !
     PARAM G(LIQUID,AL,MG,SI;1) 298.15   8000; 6000 N !
     PARAM G(LIQUID,AL,MG,SI;2) 298.15   -49000+6*T; 6000 N !
     PARAM G(LIQUID,CU,MG,SI;0) 298.15    -13243.74; 6000 N !
     PARAM G(LIQUID,CU,MG,SI;1) 298.15    -65000; 6000 N !
     PARAM G(LIQUID,CU,MG,SI;2) 298.15    -30000; 6000 N !
 
 PHASE FCC_A1 %A 2 1 1 !
 CONST FCC_A1 :AL,CU,MG,SI:VA:!
     PARAM G(FCC_A1,AL:VA;0) 298.15   +GHSERAL; 3000 N !
     PARAM G(FCC_A1,CU:VA;0) 298.15   +GHSERCU; 3200 N !
     PARAM G(FCC_A1,MG:VA;0) 298.15   +2600-.9*T+GHSERMG; 3000 N !
     PARAM G(FCC_A1,SI:VA;0) 298.15   +51000-21.8*T+GHSERSI; 6000 N !
     PARAM G(FCC_A1,AL,CU:VA;0) 298.15   -47441-3*T; 6000 N !
     PARAM G(FCC_A1,AL,CU:VA;1) 298.15   +47597-11.5*T; 6000 N !
     PARAM G(FCC_A1,AL,CU:VA;2) 298.15   -2590; 6000 N !
     PARAM G(FCC_A1,AL,MG:VA;0) 298.15   +4945.7-1.318*T; 6000 N !
     PARAM G(FCC_A1,AL,MG:VA;1) 298.15   +1594.4-0.973*T; 6000 N !
     PARAM G(FCC_A1,AL,SI:VA;0) 298.15   -2880.18427-.09*T; 6000 N !
     PARAM G(FCC_A1,CU,MG:VA;0) 298.15   -15908.5-1.50875*T; 6000 N !
     PARAM G(FCC_A1,CU,SI:VA;0) 298.15   -42203.507+13.891374*T; 6000 N !
     PARAM G(FCC_A1,CU,SI:VA;1) 298.15   -1102.1569-18.177912*T; 6000 N !
     PARAM G(FCC_A1,CU,SI:VA;2) 298.15   0; 6000 N !
     PARAM G(FCC_A1,AL,CU,MG:VA;0) 298.15   10000; 3000 N !
     PARAM G(FCC_A1,AL,CU,SI:VA;0) 298.15   30000; 6000 N !
     PARAM G(FCC_A1,AL,CU,SI:VA;1) 298.15   80000; 6000 N !
     PARAM G(FCC_A1,AL,CU,SI:VA;2) 298.15   0; 6000 N !
     PARAM G(FCC_A1,CU,MG,SI:VA;0) 298.15   -15839.721-12*T; 6000 N !
     PARAM G(FCC_A1,CU,MG,SI:VA;1) 298.15   0; 6000 N !
     PARAM G(FCC_A1,CU,MG,SI:VA;2) 298.15   0; 6000 N !
 
 PHASE HCP_A3 %B 2 1 0.5 !
 CONST HCP_A3 :AL,CU,MG,SI:VA:!
     PARAM G(HCP_A3,AL:VA;0) 298.15   +5481-1.8*T+GHSERAL; 2900 N !
     PARAM G(HCP_A3,CU:VA;0) 298.15   +600+.2*T+GHSERCU; 3200 N !
     PARAM G(HCP_A3,MG:VA;0) 298.15   +GHSERMG; 3000 N !
     PARAM G(HCP_A3,SI:VA;0) 298.15   +49200-20.8*T+GHSERSI; 6000 N !
     PARAM G(HCP_A3,AL,CU:VA;0) 298.15   -3.17E4+8*T; 6000 N !
     PARAM G(HCP_A3,AL,CU:VA;1) 298.15    7.8E4; 6000 N !
     PARAM G(HCP_A3,AL,MG:VA;0) 298.15   +4063.4-3.243*T; 6000 N !
     PARAM G(HCP_A3,AL,MG:VA;1) 298.15   -1642.1; 6000 N !
     PARAM G(HCP_A3,AL,SI:VA;0) 298.15   65000; 6000 N !
     PARAM G(HCP_A3,CU,MG:VA;0) 298.15   10000; 6000 N !
     PARAM G(HCP_A3,CU,SI:VA;0) 298.15   -26798.811-0.73152*T; 6000 N !
     PARAM G(HCP_A3,CU,SI:VA;1) 298.15   -28064.75-0.02889*T; 6000 N !
     PARAM G(HCP_A3,CU,SI:VA;2) 298.15   0; 6000 N !
     PARAM G(HCP_A3,MG,SI:VA;0) 298.15   -7148.79+.89361*T; 6000 N !
     PARAM G(HCP_A3,AL,CU,SI:VA;0) 298.15   -981000; 6000 N !
     PARAM G(HCP_A3,AL,CU,SI:VA;1) 298.15   -15600+13*T; 6000 N !
     PARAM G(HCP_A3,AL,CU,SI:VA;2) 298.15   0; 6000 N !
     PARAM G(HCP_A3,CU,MG,SI:VA;0) 298.15    -305000+30*T; 6000 N !
     PARAM G(HCP_A3,CU,MG,SI:VA;1) 298.15    0; 6000 N !
     PARAM G(HCP_A3,CU,MG,SI:VA;2) 298.15    0; 6000 N !
 
 PHASE BCC_A2 %D 2 1 3 !
 CONST BCC_A2 :AL,CU,MG,SI:VA:!
     PARAM G(BCC_A2,AL:VA;0) 298.15   +GBCCAL; 6000 N !
     PARAM G(BCC_A2,CU:VA;0) 298.15   +GBCCCU; 6000 N !
     PARAM G(BCC_A2,MG:VA;0) 298.15   +3100-2.1*T+GHSERMG; 6000 N !
     PARAM G(BCC_A2,SI:VA;0) 298.15   +GBCCSI; 6000 N !
     PARAM G(BCC_A2,AL,CU:VA;0) 298.15   -73554+4*T; 6000 N !
     PARAM G(BCC_A2,AL,CU:VA;1) 298.15   +51500-11.84*T; 6000 N !
     PARAM G(BCC_A2,AL,SI:VA;0) 298.15   50000; 6000 N !
     PARAM G(BCC_A2,CU,SI:VA;0) 298.15   -26447.317+10.216232*T; 6000 N !
     PARAM G(BCC_A2,CU,SI:VA;1) 298.15   -47275.11-8.517323*T; 6000 N !
     PARAM G(BCC_A2,CU,SI:VA;2) 298.15   0; 6000 N !
     PARAM G(BCC_A2,AL,CU,SI:VA;0) 298.15    0; 6000 N !
     PARAM G(BCC_A2,AL,CU,SI:VA;1) 298.15   30000; 6000 N !
     PARAM G(BCC_A2,AL,CU,SI:VA;2) 298.15    0; 6000 N !
 
 PHASE BCT_A5 % 1 1 !
 CONST BCT_A5 :AL,CU:!
     PARAM G(BCT_A5,AL;0) 298.15   +10083-4.813*T+GHSERAL; 6000 N !
     PARAM G(BCT_A5,CU;0) 298.15   +GBCTCU; 6000 N !
 
 PHASE DIAMOND_A4 % 1 1 !
 CONST DIAMOND_A4 :AL,SI:!
     PARAM G(DIAMOND_A4,AL;0) 298.15   +30*T+GHSERAL; 6000 N !
     PARAM G(DIAMOND_A4,SI;0) 298.15   +GHSERSI; 6000 N !
     PARAM G(DIAMOND_A4,AL,SI;0) 298.15   +90032.54-35*T; 6000 N !
 
 PHASE CBCC_A12 %C 2 1 1 !
 CONST CBCC_A12 :AL,MG,SI:VA:!
     PARAM G(CBCC_A12,AL:VA;0) 298.15   +10083-4.813*T+GHSERAL; 6000 N !
     PARAM G(CBCC_A12,MG:VA;0) 298.15   +4602.4-3.011*T+GHSERMG; 3000 N !
     PARAM G(CBCC_A12,SI:VA;0) 298.15   +50208-20.377*T+GHSERSI; 6000 N !
 
 PHASE CUB_A13 % 2 1 1 !
 CONST CUB_A13 :AL,MG,SI:VA:!
     PARAM G(CUB_A13,AL:VA;0) 298.15  +10920.44-4.8116*T+GHSERAL; 6000 N !
     PARAM G(CUB_A13,MG:VA;0) 298.15   +5000-3*T+GHSERMG; 3000 N !
     PARAM G(CUB_A13,SI:VA;0) 298.15   +47279-20.377*T+GHSERSI; 6000 N !
 
 PHASE AL5CU2MG8SI6 % 4 0.2381 0.0952 0.381 0.2857 !
 CONST AL5CU2MG8SI6 :AL:CU:MG:SI:!
     PARAM G(AL5CU2MG8SI6,AL:CU:MG:SI;0) 298.15  -38466+18.5*T 
     +.2381*GLIQAL+.0952*GLIQCU+.381*GLIQMG+.2857*GLIQSI; 6000 N !
 
 PHASE EPS % 2 1 1 !
 CONST EPS :AL,CU:VA:!
     PARAM G(EPS,AL:VA;0) 298.15    5481-1.8*T+GHSERAL; 6000 N !
     PARAM G(EPS,CU:VA;0) 298.15   +GHSERCU+10; 6000 N !
     PARAM G(EPS,AL,CU:VA;0) 298.15   -50000; 6000 N !
 
 PHASE SIGMA % 2 0.66667 0.33333 !
 CONST SIGMA :AL,CU,SI:MG:!
     PARAM G(SIGMA,AL:MG;0) 298.15   +20133.73+6.3946*T +0.66667*GLIQAL
     +0.33333*GLIQMG; 3000 N !
     PARAM G(SIGMA,CU:MG;0) 298.15   -22194.10+8.1935*T +0.66667*GLIQCU
     +0.33333*GLIQMG; 3000 N !
     PARAM G(SIGMA,SI:MG;0) 298.15    18000+10*T +0.66667*GHSERSI
     +0.33333*GHSERMG; 3000 N !
     PARAM G(SIGMA,AL,CU:MG;0) 298.15   -104975.7+12*T; 3000 N !
     PARAM G(SIGMA,AL,CU:MG;1) 298.15   -17279.4; 3000 N !
     PARAM G(SIGMA,CU,SI:MG;0) 298.15   -70000+12*T; 3000 N !
     PARAM G(SIGMA,CU,SI:MG;1) 298.15   -70000+30*T; 3000 N !
 
 PHASE T_ % 2 0.605 0.395 !
 CONST T_ :AL,CU:MG:!
     PARAM G(T_,AL:MG;0) 298.15   -10840.836+8.71*T +.605*GLIQAL
     +.395*GLIQMG; 3000 N !
     PARAM G(T_,CU:MG;0) 298.15   -20590.836+8.71*T +.605*GLIQCU
     +.395*GLIQMG; 3000 N !
     PARAM G(T_,AL,CU:MG;0) 298.15   -27638.95+22*T; 3000 N !
     PARAM G(T_,AL,CU:MG;1) 298.15   -17262.5; 3000 N !
 
 PHASE GAMMA % 2 1 1 !
 CONST GAMMA :AL,CU,SI:VA:!
     PARAM G(GAMMA,AL:VA;0) 298.15   +GHSERAL+10.0; 6000 N !
     PARAM G(GAMMA,CU:VA;0) 298.15   +GHSERCU+10.0; 6000 N !
     PARAM G(GAMMA,SI:VA;0) 298.15   +51010-21.8*T+GHSERSI; 6000 N !
     PARAM G(GAMMA,AL,CU:VA;0) 298.15   +ALCUK4; 6000 N !
     PARAM G(GAMMA,AL,CU:VA;1) 298.15   +ALCUK5; 6000 N !
     PARAM G(GAMMA,AL,CU:VA;2) 298.15   +ALCUK6; 6000 N !
     PARAM G(GAMMA,AL,SI:VA;0) 298.15   6E4; 6000 N !
     PARAM G(GAMMA,CU,SI:VA;0) 298.15   0; 6000 N !
     PARAM G(GAMMA,CU,SI:VA;1) 298.15  -4.5E4; 6000 N !
     PARAM G(GAMMA,AL,CU,SI:VA;0) 298.15   9.85E5; 6000 N !
     PARAM G(GAMMA,AL,CU,SI:VA;1) 298.15   -7.245E5; 6000 N !
     PARAM G(GAMMA,AL,CU,SI:VA;2) 298.15    8E5; 6000 N !
 
 PHASE GAMMA_H % 3 4 1 8 !
 CONST GAMMA_H :AL:AL,CU:CU:!
     PARAM G(GAMMA_H,AL:AL:CU;0) 298.15  -219258-45.5*T +5*GHSERAL
     +8*GHSERCU; 6000 N !
     PARAM G(GAMMA_H,AL:CU:CU;0) 298.15  -200460-58.5*T +4*GHSERAL
     +9*GHSERCU; 6000 N !
 
 PHASE Q % 3 0.4375 0.375 0.1875 !
 CONST Q :AL:MG:CU:!
     PARAM G(Q,AL:MG:CU;0) 298   -23657.9+10.6*T +.4375*GLIQAL+.375*GLIQMG
     +.1875*GLIQCU; 3000 N !
 
 PHASE S % 3 0.5 0.25 0.25 !
 CONST S :AL:MG:CU:!
     PARAM G(S,AL:MG:CU;0) 298.15   -27344.5+12*T +.5*GLIQAL+.25*GLIQCU
     +.25*GLIQMG; 3000 N !
 
 PHASE V % 3 0.38461 0.15385 0.46154 !
 CONST V :AL:MG:CU:!
     PARAM G(V,AL:MG:CU;0) 298.15   -33303.32+11*T +.38461*GLIQAL
     +.15385*GLIQMG+.46154*GLIQCU; 3000 N !
 
 PHASE BCC_B2 %Y 3 0.5 0.5 3 !
 CONST BCC_B2 :AL,MG,SI:AL,MG,SI:VA:!
     PARAM G(BCC_B2,MG:MG:VA;0) 298.15  0; 6000 N !
 
 PHASE CU16MG6SI7 % 3 0.551724 0.206897 0.241379 !
 CONST CU16MG6SI7 :CU:MG:SI:!
     PARAM G(CU16MG6SI7,CU:MG:SI;0) 298.15   -14225.572-0.8*T 
     +.551724*GHSERCU+.206897*GHSERMG+.241379*GHSERSI; 6000 N !
 
 PHASE B2 % 2 1 1 !
 CONST B2 :AL:VA:!
     PARAM G(B2,AL:VA;0) 298.15   +10000-T+GBCCAL; 6000 N !
 
 PHASE DISORDER % 2 1 1 !
 CONST DISORDER :AL:VA:!
     PARAM G(DISORDER,AL:VA;0) 298.15   +GHSERAL+10; 6000 N !
 
 PHASE AL3NI2 % 3 3 2 1 !
 CONST AL3NI2 :AL:AL:VA:!
     PARAM G(AL3NI2,AL:AL:VA;0) 298.15   +30000-3*T+5*GBCCAL; 6000 N !
 
 PHASE ALCU_THETA % 2 0.667 0.333 !
 CONST ALCU_THETA :AL:AL,CU:!
     PARAM G(ALCU_THETA,AL:AL;0) 298.15   +GBCCAL; 6000 N !
     PARAM G(ALCU_THETA,AL:CU;0) 298.15   -15802+2.25*T +.667*GHSERAL
     +.333*GHSERCU; 6000 N !
     PARAM G(ALCU_THETA,AL:AL,CU;0) 298.15   737; 6000 N !
 
 PHASE ALCU_DELTA % 2 0.4 0.6 !
 CONST ALCU_DELTA :AL:CU:!
     PARAM G(ALCU_DELTA,AL:CU;0) 298.15   -21340+.6*T +.4*GHSERAL
     +.6*GHSERCU; 6000 N !
 
 PHASE ALCU_EPS % 2 0.5 0.5 !
 CONST ALCU_EPS :AL,CU:CU:!
     PARAM G(ALCU_EPS,AL:CU;0) 298.15   -18488+.6*T +.5*GHSERAL
     +.5*GHSERCU; 6000 N !
     PARAM G(ALCU_EPS,CU:CU;0) 298.15   +GBCCCU; 6000 N !
     PARAM G(ALCU_EPS,AL,CU:CU;0) 298.15   +3800-12*T; 6000 N !
     PARAM G(ALCU_EPS,AL,CU:CU;1) 298.15   -36000; 6000 N !
 
 PHASE ALCU_ETA % 2 0.5 0.5 !
 CONST ALCU_ETA :AL,CU:CU:!
     PARAM G(ALCU_ETA,AL:CU;0) 298.15   -20280+1.57*T +.5*GHSERAL
     +.5*GHSERCU; 6000 N !
     PARAM G(ALCU_ETA,CU:CU;0) 298.15   +GBCCCU; 6000 N !
     PARAM G(ALCU_ETA,AL,CU:CU;0) 298.15   -12870-10*T; 6000 N !
 
 PHASE ALCU_ZETA % 2 0.45 0.55 !
 CONST ALCU_ZETA :AL:CU:!
     PARAM G(ALCU_ZETA,AL:CU;0) 298.15   -21000+.9*T +.45*GHSERAL
     +.55*GHSERCU; 6000 N !
 
 PHASE AL5FE4 % 1 1 !
 CONST AL5FE4 :AL:!
     PARAM G(AL5FE4,AL;0) 298.15   +12178.9-4.813*T+GHSERAL; 6000 N !
 
 PHASE ALMG_BETA % 2 0.615 0.385 !
 CONST ALMG_BETA :AL:MG:!
     PARAM G(ALMG_BETA,AL:MG;0) 298.15   -1451.1-1.907*T +.615*GHSERAL
     +.385*GHSERMG; 6000 N !
 
 PHASE ALMG_EPSILON % 2 0.56 0.44 !
 CONST ALMG_EPSILON :AL:MG:!
     PARAM G(ALMG_EPSILON,AL:MG;0) 298.15   -768.6-3.119*T +.56*GHSERAL
     +.44*GHSERMG; 6000 N !
 
 PHASE ALMG_GAMMA % 3 0.4483 0.1379 0.4138 !
 CONST ALMG_GAMMA :MG:AL,MG:AL,MG:!
     PARAM G(ALMG_GAMMA,MG:AL:AL;0) 298.15   -1270-1.75*T +.5517*GHSERAL
     +.4483*GHSERMG; 6000 N !
     PARAM G(ALMG_GAMMA,MG:MG:AL;0) 298.15   -2441.4+0.219*T +.4138*GHSERAL
     +.5862*GHSERMG; 6000 N !
     PARAM G(ALMG_GAMMA,MG:AL:MG;0) 298.15   +1279.6+1.1606*T +.1379*GHSERAL
     +.8621*GHSERMG; 6000 N !
     PARAM G(ALMG_GAMMA,MG:MG:MG;0) 298.15   +5000+GHSERMG; 6000 N !
 
 PHASE ALMG_ZETA % 2 0.525 0.475 !
 CONST ALMG_ZETA :AL:MG:!
     PARAM G(ALMG_ZETA,AL:MG;0) 298.15   -837.8-3.163*T +.525*GHSERAL
     +.475*GHSERMG; 6000 N !
 
 PHASE AL3TI % 2 0.25 0.75 !
 CONST AL3TI :AL:AL:!
     PARAM G(AL3TI,AL:AL;0) 298.15   1+GHSERAL; 6000 N !
 
 PHASE ALTI3 %F 2 0.75 0.25 !
 CONST ALTI3 :AL:AL:!
     PARAM G(ALTI3,AL:AL;0) 298.15   1+GHCPAL; 6000 N !
 
 PHASE ALTI %G 2 0.5 0.5 !
 CONST ALTI :AL:AL:!
     PARAM G(ALTI,AL:AL;0) 298.15   1+GHSERAL; 6000 N !
 
 PHASE CUMG2 % 2 0.33333 0.66667 !
 CONST CUMG2 :CU:MG:!
     PARAM G(CUMG2,CU:MG;0) 298.15   -9648.1+0.53534*T +0.33333*GHSERCU
     +0.66666*GHSERMG; 6000 N !
 
 PHASE DELTA_CU33SI7 % 2 0.825 0.175 !
 CONST DELTA_CU33SI7 :CU:SI:!
     PARAM G(DELTA_CU33SI7,CU:SI;0) 298.15   +1972.382-6.9664*T +.825*GHSERCU
     +.175*GHSERSI; 6000 N !
 
 PHASE EPSILON_CU15SI4 % 2 0.789474 0.210526 !
 CONST EPSILON_CU15SI4 :CU,MG:SI:!
     PARAM G(EPSILON_CU15SI4,CU:SI;0) 298.15   +1240.964 -6.71912*T
     +.789474*GHSERCU+.210526*GHSERSI; 6000 N !
     PARAM G(EPSILON_CU15SI4,MG:SI;0) 298.15   0 +.789474*GHSERMG
     +.210526*GHSERSI; 6000 N !
     PARAM G(EPSILON_CU15SI4,CU,MG:SI;0) 298.15   0; 6000 N !
     PARAM G(EPSILON_CU15SI4,CU,MG:SI;1) 298.15   0; 6000 N !
     PARAM G(EPSILON_CU15SI4,CU,MG:SI;2) 298.15   0; 6000 N !
 
 PHASE ETA_CU19SI6 % 2 0.76 0.24 !
 CONST ETA_CU19SI6 :CU,MG:SI:!
     PARAM G(ETA_CU19SI6,CU:SI;0) 298.15   +1367.66-7.1976*T +.76*GHSERCU
     +.24*GHSERSI; 6000 N !
     PARAM G(ETA_CU19SI6,MG:SI;0) 298.15   0 +.76*GHSERMG+.24*GHSERSI; 6000 N !
     PARAM G(ETA_CU19SI6,CU,MG:SI;0) 298.15   0; 6000 N !
     PARAM G(ETA_CU19SI6,CU,MG:SI;1) 298.15   0; 6000 N !
     PARAM G(ETA_CU19SI6,CU,MG:SI;2) 298.15   0; 6000 N !
 
 PHASE GAMMA_CU56SI11 % 2 0.835821 0.164179 !
 CONST GAMMA_CU56SI11 :CU,MG:SI:!
     PARAM G(GAMMA_CU56SI11,CU:SI;0) 298.15   +1046.49 -5.87468*T+.835821*GHSERCU
     +.164179*GHSERSI; 6000 N !
     PARAM G(GAMMA_CU56SI11,MG:SI;0) 298.15   557004.67 +.835821*GHSERMG
     +.164179*GHSERSI; 6000 N !
     PARAM G(GAMMA_CU56SI11,CU,MG:SI;0) 298.15   0; 6000 N !
     PARAM G(GAMMA_CU56SI11,CU,MG:SI;1) 298.15  -551841.54-38*T; 6000 N !
     PARAM G(GAMMA_CU56SI11,CU,MG:SI;2) 298.15   0; 6000 N !
 
 PHASE MG2ZN11 % 2 0.153846 0.846154 !
 CONST MG2ZN11 :MG:AL:!
     PARAM G(MG2ZN11,MG:AL;0) 298.15   +8000 +0.153846*GHSERMG
     +0.846154*GHSERAL; 6000 N !
 
 PHASE MG2SI % 2 2 1 !
 CONST MG2SI :MG:SI:!
     PARAM G(MG2SI,MG:SI;0) 298.15   -64110+14.8678*T +2*GHSERMG+GHSERSI; 6000 N !
 
 PHASE AGMG3 % 2 0.23 0.77 !
 CONST AGMG3 :CU:AL,MG:!
     PARAM G(AGMG3,CU:MG;0) 300   +.23*GHSERCU+.77*GHSERMG; 3000 N !
 
 PHASE AGMG4 % 2 0.2 0.8 !
 CONST AGMG4 :CU:AL,MG:!
     PARAM G(AGMG4,CU:MG;0) 300   +.2*GHSERCU+.8*GHSERMG; 3000 N !
 
 PHASE DO3 % 2 0.75 0.25 !
 CONST DO3 :CU:CU:!
     PARAM G(DO3,CU:CU;0) 298.15   +GBCCCU; 6000 N !
 
 PHASE MGX % 2 0.5 0.5 !
 CONST MGX :MG:MG:!
     PARAM G(MGX,MG:MG;0) 298.15   +4945.74+GHSERMG; 6000 N !
 
 PHASE CU6Y % 2 5 1 !
 CONST CU6Y :CU:CU2:!
     PARAM G(CU6Y,CU:CU2;0) 298.15   +35000+7*GHSERCU; 6000 N !
 
 PHASE MG24Y5 % 2 24 5 !
 CONST MG24Y5 :MG:MG:!
     PARAM G(MG24Y5,MG:MG;0) 298.15   +44506.01+29*GHSERMG; 6000 N !
 
 PHASE DHCP % 1 1 !
 CONST DHCP :AL,MG:!
     PARAM G(DHCP,AL;0) 298.15  5781-1.8*T+GHSERAL; 4000 N !
     PARAM G(DHCP,MG;0) 298.15  500+GHSERMG; 6000 N !
     PARAM G(DHCP,AL,MG;0) 298.15  1950-2*T; 6000 N !
     PARAM G(DHCP,AL,MG;1) 298.15  1480-2.08*T; 6000 N !
     PARAM G(DHCP,AL,MG;2) 298.15  3500; 6000 N !
 
 