$ ========================================================================
$
$                            ORNL Test database
$ 
$ ========================================================================
$-------------------------------------------------------------------------
$ Author:              Sunyong Kwon
$ Date:        2023-10-31'
$ Description: This database is constructed from COST507 and TAF-ID 
$ for purposed of testing an open-source program Equilipy.
$
$
$ 
$ ALLOY ELEMENTS (7):  Al Cr Cu Fe Mg Si Zr
$
$ ATTENTION: Do not go over 78 charactors in a line. It causes an error in
$ Thermo-Calc.
$--------------------------------------------------------------------------

$ >>>>>>>>>>>>>>>>>>>>>>>>>>>>>>>>>>>>>>>>>>>>>>>>>>>>>>>>>>>>>>>>>>>>>>>>>
$ Define ELEMENTS:
$ ------------------------------------------------------------------------
$ ELEMENTS    SER                       g/mol       H298        S298
$ ------------------------------------------------------------------------
$
 ELEMENT /-   ELECTRON_GAS              0.0000E+00  0.0000E+00  0.0000E+00!
 ELEMENT VA   VACUUM                    0.0000E+00  0.0000E+00  0.0000E+00!
 ELEMENT AL   FCC_A1                    2.6982E+01  4.5773E+03  2.8322E+01!
 ELEMENT CR   BCC_A2                    5.1996E+01  4.0500E+03  2.3560E+01!
 ELEMENT CU   FCC_A1                    6.3546E+01  5.0041E+03  3.3150E+01!
 ELEMENT FE   BCC_A2                    5.5847E+01  4.4890E+03  2.7280E+01!
 ELEMENT MG   HCP_A3                    2.4305E+01  4.9980E+03  3.2671E+01!
 ELEMENT SI   DIAMOND_A4                2.8085E+01  3.2175E+03  1.8820E+01!
 ELEMENT ZR   HCP_A3                    9.1224E+01  5.5663E+03  3.9181E+01!
$ <<<<<<<<<<<<<<<<<<<<<<<<<<<<<<<<<<<<<<<<<<<<<<<<<<<<<<<<<<<<<<<<<<<<<<<<<


$ >>>>>>>>>>>>>>>>>>>>>>>>>>>>>>>>>>>>>>>>>>>>>>>>>>>>>>>>>>>>>>>>>>>>>>>>>
$ Define SPECIES:
$ -------------------------------------------------------------------------
$ Species    Name                  Constituent/Charge
$ -------------------------------------------------------------------------
 SPECIES     AL2                   AL2 !
 SPECIES     SI+1                  SI1/+1 !
 SPECIES     SI2                   SI2 !
 SPECIES     SI3                   SI3 !
$ <<<<<<<<<<<<<<<<<<<<<<<<<<<<<<<<<<<<<<<<<<<<<<<<<<<<<<<<<<<<<<<<<<<<<<<<<

$ >>>>>>>>>>>>>>>>>>>>>>>>>>>>>>>>>>>>>>>>>>>>>>>>>>>>>>>>>>>>>>>>>>>>>>>>>
$ Define Functions
$ -------------------------------------------------------------------------
$FUNCTION Name           LowTemp(K) Equation;             HighTemp(K) Y/N !
$ -------------------------------------------------------------------------
 FUNCTION R              298.15   8.31451;                6000 N !
 FUNCTION UN_ASS         298.15   0;                      6000 N !
 FUNCTION GHSERAL        298.15   -7976.15+137.093038*T 
    -24.3671976*T*LN(T) -.001884662*T**2 -8.77664E-07*T**3 
    +74092*T**(-1);                                       700 Y
    -11276.24+223.048446*T-38.5844296*T*LN(T)+.018531982*T**2 
    -5.764227E-06*T**3+74092*T**(-1);                     933.47 Y
    -11278.378+188.684153*T-31.748192*T*LN(T)-1.230524E+28*T**(-9); 
                                                          2900 N !
 FUNCTION GHSERCR        298.15   -8856.94+157.48*T-26.908*T*LN(T) 
    +.00189435*T**2-1.47721E-06*T**3+139250*T**(-1);      2180 Y
    -34869.344+344.18*T-50*T*LN(T)-2.88526E+32*T**(-9);   6000 N !
 FUNCTION GHSERFE        298.15     +1225.7+124.134*T-23.5143*T*LN(T) 
    -.00439752*T**2-5.8927E-08*T**3+77359*T**(-1);        1811 Y
    -25383.581+299.31255*T-46*T*LN(T)
    +2.29603E+31*T**(-9);                                 6000 N !
 FUNCTION GHSERMG        298.15    -8367.34+143.675547*T-26.1849782*T*LN(T) 
    +4.858E-04*T**2-1.393669E-06*T**3+78950*T**(-1);      923 Y
    -14130.185+204.716215*T-34.3088*T*LN(T)
    +1.038192E+28*T**(-9);                                3000 N !
 FUNCTION GHSERMN        298.15    -8115.28+130.059*T-23.4582*T*LN(T) 
    -.00734768*T**2+69827*T**(-1); 1519 Y
    -28733.41+312.2648*T-48*T*LN(T)+1.656847E+30*T**(-9); 6000 N !
 FUNCTION GHSERSI        298.15    -8162.609+137.236859*T
    -22.8317533*T*LN(T) -.001912904*T**2-3.552E-09*T**3
    +176667*T**(-1);                                      1687 Y
    -9457.642+167.281367*T-27.196*T*LN(T)
    -4.20369E+30*T**(-9);                                 3600 N !
 FUNCTION GHSERZR        130    -7827.595+125.64905*T-24.1618*T*LN(T) 
    -.00437791*T**2+34971*T**(-1); 2128 Y
    -26085.921+262.724183*T-42.144*T*LN(T)
    -1.342895E+31*T**(-9);                                6000 N !
 FUNCTION GHSERLI        200    -10583.817+217.637482*T-38.940488*T*LN(T) 
    +.035466931*T**2-1.9869816E-05*T**3+159994*T**(-1);   453.6 Y
    -559579.123+10547.8799*T-1702.88865*T*LN(T)+2.25832944*T**2 
    -5.71066077E-04*T**3 +33885874*T**(-1);               500 Y
    -9062.994+179.278285*T-31.2283718*T*LN(T)+.002633221*T**2 
    -4.38058E-07*T**3-102387*T**(-1);                     3000 N !
 FUNCTION GHSERCU        298.15    -7770.458+130.485235*T
    -24.112392*T*LN(T) -.00265684*T**2+1.29223E-07*T**3
    +52478*T**(-1);                                       1357.77 Y
    -13542.026+183.803828*T-31.38*T*LN(T)
    +3.64167E+29*T**(-9);                                 3200 N !
 FUNCTION GBCCCU         298.15   +4017-1.255*T+GHSERCU;  6000 N !
 FUNCTION GBCCAL         298.15   +10083-4.813*T+GHSERAL; 6000 N !
 FUNCTION GBCCMG         298.15   +3100-2.1*T+GHSERMG;    6000 N !
 FUNCTION GHCPAL         298.15   +5481-1.8*T+GHSERAL;    6000 N !
 FUNCTION ALFEW1         298.15   +860*R;                 6000 N !
 FUNCTION LALFEB0        298.15   -30740+7.9972*T+ALFEW1; 6000 N !
 FUNCTION FESIW1         298.15   +1260*R;                6000 N !
 FUNCTION GBCCSI         298.15   +47000-22.5*T+GHSERSI;  6000 N !
 FUNCTION FESIL0         298.15   -27809+11.62*T;         6000 N !
 FUNCTION LALFEB1        298.15   368.15;                 6000 N !
 FUNCTION FESIL1         298.15   -11544;                 6000 N !
 FUNCTION FESIL2         298.15   3890;                   6000 N !
 FUNCTION ETCFESI        298.15   63;                     6000 N !    

$TAF-ID Functions from 01Din, 06Slu, 13Slu, 14ND, PBC36
 FUNCTION GFEFCC    298.15 
    -1462.4+8.282*T-1.15*T*LN(T)+6.4E-04*T**2+GHSERFE;  1811.0  Y    
    -27098.266+300.25256*T-46*T*LN(T)+2.78854E+31*T**(-9); 6000 N !
 FUNCTION GBCCZR     130.0
    -525.539+124.9457*T-25.607406*T*LN(T)-3.40084E-04*T**2
    -9.729E-09*T**3+25233*T**(-1)-7.6143E-11*T**4;     2128.0 Y
    -4620.034+1.55998*T+GHSERZR+1.4103476E+32*T**(-9); 6000 N !
 FUNCTION GFCCZR         298.15  +7600-.9*T+GHSERZR;      6000 N  !
 FUNCTION C14CRCR        298.15   +GHSERCR+26600;         6000 N !
 FUNCTION C14FEFE        298.15   +GFEFCC+5700;           6000 N !
 FUNCTION C15FEFE        298.15   +GFEFCC+5600;           6000 N !
 FUNCTION C15CRCR        298.15   +GHSERCR+24400;         6000 N !
 FUNCTION C36CRCR        298.15   +GHSERCR+25200;         6000 N !
 FUNCTION C36FEFE        298.15   +GFEFCC+5700;           6000 N !
 FUNCTION C15FEZR        298.15   -38900+121.3*T
 -21.9118*T*LN(T)-5.14723E-3*T**2;                        6000 N !
 FUNCTION C15ZRFE        298.15   -C15FEZR+5000
 +GHSERFE+5000+GHSERZR;                                   6000 N !
 FUNCTION C36FEZR        298.15   -37724+9.626*T;         6000 N !
 FUNCTION C14CRZR        298.15   -2702-4.2905*T;         6000 N ! 
 FUNCTION C15CRZR        298.15   -4342-3.442*T;          6000 N !
 FUNCTION C36CRZR        298.15   -3663-3.7979*T;         6000 N !
 FUNCTION C14ZRZR        298.15   +GFCCZR+16000;          6000 N  !
 FUNCTION C15ZRZR        298.15   +GFCCZR+22800;          6000 N  !
 FUNCTION C36ZRZR        298.15   +GFCCZR+18300;          6000 N  !
 FUNCTION B2ALVA         295.15   +10000-T;               6000 N  !
 FUNCTION LB2ALVA        298.15   +150000;                6000 N  !
$ <<<<<<<<<<<<<<<<<<<<<<<<<<<<<<<<<<<<<<<<<<<<<<<<<<<<<<<<<<<<<<<<<<<<<<<<<
 
$ >>>>>>>>>>>>>>>>>>>>>>>>>>>>>>>>>>>>>>>>>>>>>>>>>>>>>>>>>>>>>>>>>>>>>>>>>
$ Type definitions
$ -------------------------------------------------------------------------
 TYPE_DEFINITION % SEQ * !
 DEFINE_SYSTEM_DEFAULT ELEMENT 2 !
 DEFAULT_COMMAND DEF_SYS_ELEMENT VA /- !
 TYPE_DEFINITION & GES AMEND_PHASE_DESCRIPTION BCC_A2 MAGNETIC -1 0.4 !
 TYPE_DEFINITION ' GES AMEND_PHASE_DESCRIPTION BCC_B2 MAGNETIC -1 0.4 !
 TYPE_DEFINITION ( GES AMEND_PHASE_DESCRIPTION CBCC_A12 MAGNETIC -3 0.28 !
 TYPE_DEFINITION ) GES AMEND_PHASE_DESCRIPTION FCC_A1 MAGNETIC -3 0.28 !
 TYPE_DEFINITION * GES AMEND_PHASE_DESCRIPTION HCP_A3 MAGNETIC -3 0.28 !
$ <<<<<<<<<<<<<<<<<<<<<<<<<<<<<<<<<<<<<<<<<<<<<<<<<<<<<<<<<<<<<<<<<<<<<<<<<


$ >>>>>>>>>>>>>>>>>>>>>>>>>>>>>>>>>>>>>>>>>>>>>>>>>>>>>>>>>>>>>>>>>>>>>>>>>
$ Phase and constituents
$ -------------------------------------------------------------------------
$ Phase PhaseName:GibbsModel % Sublattice# Stoich#Sub1 Stoich#Sub2 ...!
$ CONST PhaseName :ElementSub1:ElementSub2:...:!
$ >>>>>>>>>>>>>>>>>>>>>>>>>>>>>>>>>>>>>>>>>>>>>>>>>>>>>>>>>>>>>>>>>>>>>>>>>
 PHASE LIQUID:L % 1 1 !
 CONST LIQUID:L :AL,CR,CU,FE,MG,SI,ZR:!
    
 PHASE AL11CR2 % 3 10 1 2 !
 CONST AL11CR2 :AL:AL:CR:!

 PHASE AL11MN4 % 2 11 4 !
 CONST AL11MN4 :AL:FE:!

 PHASE ALMG_A12  %  3 5   12   12 !
 CONST ALMG_A12  :MG : AL,MG : AL,MG :  !

 PHASE AL12MN % 2 12 1 !
 CONST AL12MN :AL:FE:!
    
 PHASE AL13CR2 % 2 13 2 !
 CONST AL13CR2 :AL:CR:!
    
 PHASE AL13FE4 % 3 0.6275 0.235 0.1375 !
 CONST AL13FE4 :AL:FE:AL,SI,VA:!
    
 PHASE AL2FE % 2 2 1 !
 CONST AL2FE :AL:FE:!
    
 PHASE AL2ZR1 % 2 2 1 !
 CONST AL2ZR1 :AL:ZR:!
    
 PHASE AL2ZR3 % 2 2 3 !
 CONST AL2ZR3 :AL:ZR:!
    
 PHASE AL3ZR1 % 2 3 1 !
 CONST AL3ZR1 :AL:ZR:!
    
 PHASE AL3ZR2 % 2 3 2 !
 CONST AL3ZR2 :AL:ZR:!
    
 PHASE AL3ZR5 % 2 3 5 !
 CONST AL3ZR5 :AL:ZR:!
    
 PHASE AL4CR % 2 4 1 !
 CONST AL4CR :AL:CR:!
    
 PHASE AL4ZR5 % 2 4 5 !
 CONST AL4ZR5 :AL:ZR:!
    
 PHASE AL5FE2 % 2 5 2 !
 CONST AL5FE2 :AL:FE:!
    
 PHASE AL5FE4 % 1 1 !
 CONST AL5FE4 :AL,FE:!
    
 PHASE AL6MN % 2 6 1 !
 CONST AL6MN :AL:FE:!
    
 PHASE AL8CR5_H % 2 8 5 !
 CONST AL8CR5_H :AL:CR:!
    
 PHASE AL8CR5_L % 2 8 5 !
 CONST AL8CR5_L :AL:CR:!
    
 PHASE AL9CR4_H % 2 9 4 !
 CONST AL9CR4_H :AL:CR:!
    
 PHASE AL9CR4_L % 2 9 4 !
 CONST AL9CR4_L :AL:CR:!
    
 PHASE ALCR2 % 2 1 2 !
 CONST ALCR2 :AL:CR:!
    
 PHASE ALCU_DELTA % 2 2 3 !
 CONST ALCU_DELTA :AL:CU:!
    
 PHASE ALCU_EPSILON % 2 1 1 !
 CONST ALCU_EPSILON :AL,CU:CU:!
    
 PHASE ALCU_ETA % 2 1 1 !
 CONST ALCU_ETA :AL,CU:CU:!
    
 PHASE ALCU_PRIME % 2 2 1 !
 CONST ALCU_PRIME :AL:CU:!
    
 PHASE ALCU_THETA % 2 2 1 !
 CONST ALCU_THETA :AL:AL,CU:!
    
 PHASE ALCU_ZETA % 2 9 11 !
 CONST ALCU_ZETA :AL:CU:!
   
 PHASE ALFESI_ALPHA % 4 0.6612 0.19 0.0496 0.0992 !
 CONST ALFESI_ALPHA :AL:FE:SI:AL,SI:!
    
 PHASE ALFESI_BETA % 3 14 3 3 !
 CONST ALFESI_BETA :AL:FE:SI:!
    
 PHASE ALFESI_DELTA % 3 0.55 0.15 0.3 !
 CONST ALFESI_DELTA :AL:FE:SI:!
    
 PHASE ALFESI_GAMMA % 3 3 1 1 !
 CONST ALFESI_GAMMA :AL:FE:SI:!
    
 PHASE ALFESI_TAU1 % 3 2 2 1 !
 CONST ALFESI_TAU1 :AL:FE:SI:!
    
 PHASE ALFESI_TAU3 % 3 2 1 1 !
 CONST ALFESI_TAU3 :AL:FE:SI:!
    
 PHASE ALLI % 2 1 1 !
 CONST ALLI :AL,MG:MG,VA:!
    
 PHASE ALMG_BETA  %  2 89   140 !
 CONST ALMG_BETA  :MG : AL :  !

 PHASE ALMG_EPS  %  2 23   30 !
 CONST ALMG_EPS  :MG : AL :  !
    
 PHASE ALMG_ZETA  %  2 .525   .475 !
 CONST ALMG_ZETA  :AL : MG :  !
    
 PHASE AL1ZR1 % 2 1 1 !
 CONST AL1ZR1 :AL:ZR:!
    
 PHASE ALZR2 % 2 1 2 !
 CONST ALZR2 :AL:ZR:!
    
 PHASE ALZR3 % 2 1 3 !
 CONST ALZR3 :AL:ZR:!
    
 PHASE BCC_A2 %& 2 1 3 !
 CONST BCC_A2 :AL,CR,CU,FE,MG,SI,ZR,VA:VA:!
        
 PHASE BCC_B2 %' 2 0.5 0.5 !
 CONST BCC_B2 :AL,CU,FE,SI:AL,CU,FE,SI:!
    
 PHASE BCT_A5 % 1 1 !
 CONST BCT_A5 :AL:!
    
 PHASE CBCC_A12 %( 2 1 1 !
 CONST CBCC_A12 :AL,CR,FE,MG,SI:VA:!
                 
 PHASE CR3SI_A15 % 2 3 1 !
 CONST CR3SI_A15 :CR,SI:CR,SI:!
    
 PHASE CR5SI3 % 2 5 3 !
 CONST CR5SI3 :CR:SI:!
    
 PHASE CR1SI1 % 2 1 1 !
 CONST CR1SI1 :CR:SI:!
    
 PHASE CRSI2 % 2 1 2 !
 CONST CRSI2 :CR,SI:CR,SI:!
    
 PHASE CU10ZR7 % 2 10 7 !
 CONST CU10ZR7 :CU:ZR:!
    
 PHASE CU19SI6_ETA % 2 19 6 !
 CONST CU19SI6_ETA :CU:SI:!
    
 PHASE CU33SI7_DELTA % 2 33 7 !
 CONST CU33SI7_DELTA :CU:SI:!
    
 PHASE CU4SI_EPSILON % 2 4 1 !
 CONST CU4SI_EPSILON :CU:SI:!
    
 PHASE CU51ZR14 % 2 51 14 !
 CONST CU51ZR14 :CU:ZR:!
   
 PHASE CU56SI11_GAMMA % 2 56 11 !
 CONST CU56SI11_GAMMA :CU:SI:!
   
 PHASE CU5ZR % 2 5 1 !
 CONST CU5ZR :CU:ZR:!
    
 PHASE CU8ZR3 % 2 8 3 !
 CONST CU8ZR3 :CU:ZR:!
    
 PHASE CUB_A13 % 2 1 1 !
 CONST CUB_A13 :AL,CR,FE,SI:VA:!

 PHASE CUMG2 % 2 1 2 !
 CONST CUMG2 :CU:MG:!
   
 PHASE CU1ZR1 % 2 1 1 !
 CONST CU1ZR1 :CU:ZR:!
    
 PHASE CUZR2 % 2 1 2 !
 CONST CUZR2 :CU:ZR:!
    
 PHASE DIAMOND_A4 % 1 1 !
 CONST DIAMOND_A4 :AL,SI:!
        
 PHASE FCC_A1 %) 2 1 1 !
 CONST FCC_A1 :AL,CR,CU,FE,MG,SI,ZR:VA:!

 PHASE FE2SI % 2 2 1 !
 CONST FE2SI :FE:SI:!
    
 PHASE FE5SI3 % 2 5 3 !
 CONST FE5SI3 :FE:SI:!
    
 PHASE FE1SI1 % 2 1 1 !
 CONST FE1SI1 :FE:SI:!
    
 PHASE FESI2_H % 2 3 7 !
 CONST FESI2_H :FE:SI:!
    
 PHASE FESI2_L % 2 1 2 !
 CONST FESI2_L :FE:SI:!
    
 PHASE GAMMA_D83 % 3 4 1 8 !
 CONST GAMMA_D83 :AL:AL,CU:CU:!
    
 PHASE GAMMA_H % 3 4 1 8 !
 CONST GAMMA_H :AL:AL,CU:CU:!

 PHASE HCP_A3 %* 2 1 0.5 !
 CONST HCP_A3 :AL,CR,CU,FE,MG,SI,ZR:VA:!
    
 PHASE LAVES_C14 % 2 2 1 !
 CONST LAVES_C14 :CR,FE,ZR:CR,FE,ZR:!
    
 PHASE LAVES_C15 % 2 2 1 !
 CONST LAVES_C15 :AL,CR,CU,FE,MG,ZR:CR,CU,FE,MG,ZR:!
    
 PHASE LAVES_C36 % 2 2 1 !
 CONST LAVES_C36 :CR,FE,ZR:CR,FE,MG,ZR:!
    
 PHASE MG24Y5 % 2 24 5 !
 CONST MG24Y5 :MG:MG:!
    
 PHASE MG2SI % 2 2 1 !
 CONST MG2SI :MG:SI:!
    
 PHASE MGY_GAMMA % 2 1 1 !
 CONST MGY_GAMMA :MG:MG:!
    
 PHASE OMEGA % 1 1 !
 CONST OMEGA :ZR:!
    
 PHASE SI2ZR1 % 2 2 1 !
 CONST SI2ZR1 :SI:ZR:!
    
 PHASE SI2ZR3 % 2 2 3 !
 CONST SI2ZR3 :SI:ZR:!
    
 PHASE SI3ZR5 % 2 3 5 !
 CONST SI3ZR5 :SI:ZR:!
    
 PHASE SI4ZR5 % 2 4 5 !
 CONST SI4ZR5 :SI:ZR:!
    
 PHASE SI1ZR1 % 2 1 1 !
 CONST SI1ZR1 :SI:ZR:!
    
 PHASE THETA_C16 % 2 1 2 !
 CONST THETA_C16 :FE,SI:ZR:!
    
 PHASE SIZR3 % 2 1 3 !
 CONST SIZR3 :SI:ZR:!

 PHASE SIGMA  %  3 10 4 16 !
 CONST SIGMA  : CR,FE: CR,FE:CR,FE :  !

 PHASE FEZR3_E1A  %  2  1  3 !
 CONST FEZR3_E1A  : FE : ZR :  !

$ <<<<<<<<<<<<<<<<<<<<<<<<<<<<<<<<<<<<<<<<<<<<<<<<<<<<<<<<<<<<<<<<<<<<<<<<<


$ >>>>>>>>>>>>>>>>>>>>>>>>>>>>>>>>>>>>>>>>>>>>>>>>>>>>>>>>>>>>>>>>>>>>>>>>>
$ PARAMs: Unary
$ ---------------------------------  Al  ----------------------------------
$ Date: Nov. 2023, Author: Sunyong Kwon

$ LIQUID(REF1)
 PARAM G(LIQUID,AL;0) 298.15 +11005.029-11.841867*T +7.934E-20*T**7
    +GHSERAL; 933.6 Y
    +10482.382-11.253974*T+1.231E+28*T**(-9)+GHSERAL; 6000 N !

$ BCC_A2(REF1)
 PARAM G(BCC_A2,AL:VA;0) 298.15    +10083-4.813*T+GHSERAL; 6000 N !
 PARAM L(BCC_A2,AL,VA:VA;0) 298.15 +B2ALVA+LB2ALVA;  6000 N !

$ BCC_B2(REF1)
 PARAM G(BCC_B2,AL:AL;0) 298.15    +GBCCAL; 6000 N !
 

$ BCT_A5(REF1)
 PARAM G(BCT_A5,AL;0) 298.15    +10083-4.813*T+GHSERAL; 6000 N !

$ CBCC_A12(REF1)
 PARAM G(CBCC_A12,AL:VA;0) 298.15    +10083-4.813*T+GHSERAL; 6000 N !

$ CUB_A13(REF1)
 PARAM G(CUB_A13,AL:VA;0) 298.15    +10920.44-4.8116*T+GHSERAL; 6000 N !

$ DIAMOND_A4(REF1)
 PARAM G(DIAMOND_A4,AL;0) 298.15    +30*T+GHSERAL; 6000 N !

$ FCC_A1(REF1)
 PARAM G(FCC_A1,AL:VA;0) 298.15    +GHSERAL; 6000 N !

$ HCP_A3(REF1)
 PARAM G(HCP_A3,AL:VA;0) 298.15    +GHCPAL; 6000 N !

$ AL5FE4(REF76)
 PARAM G(AL5FE4,AL;0) 298.15    +12178.9-4.813*T+GHSERAL; 6000 N !

$ ALLI(REF105)
 PARAM G(ALLI,AL:VA;0) 298.15    +24000+GHSERAL; 6000 N !

$ ---------------------------------  Cr  ----------------------------------
$ Date: Nov. 2023, Author: Sunyong Kwon

$ LIQUID(REF1)
 PARAM G(LIQUID,CR;0) 298.15    +24339.955-11.420225*T 
    +2.37615E-21*T**7+GHSERCR; 2180 Y
    +18409.36-8.563683*T+2.88526E+32*T**(-9)+GHSERCR; 6000 N !

$ BCC_A2(REF1,20LK11)
 PARAM G(BCC_A2,CR:VA;0)  298.15  +GHSERCR; 6000 N !
 PARAM TC(BCC_A2,CR:VA;0)  298.15  -311.5; 6000 N !
 PARAM BMAGN(BCC_A2,CR:VA;0)  298.15  -.008; 6000 N !
 PARAM L(BCC_A2,CR,VA:VA;0)   298.15 +250196; 6000 N  !
 PARAM G(BCC_A2,VA:VA;0) 298.15 +.1*T; 6000 N !

$ CBCC_A12(REF1)
 PARAM G(CBCC_A12,CR:VA;0) 298.15    +11087+2.7196*T+GHSERCR; 6000 N !

$ CUB_A13(REF1)
 PARAM G(CUB_A13,CR:VA;0) 298.15    +15899+.6276*T+GHSERCR; 6000 N !


$ FCC_A1(REF1)
 PARAM G(FCC_A1,CR:VA;0) 298.15    +7284+.163*T+GHSERCR; 6000 N !
 PARAM BMAGN(FCC_A1,CR:VA;0) 298.15    -2.46; 6000 N !
 PARAM TC(FCC_A1,CR:VA;0) 298.15    -1109; 6000 N !

$ HCP_A3(REF1)
 PARAM G(HCP_A3,CR:VA;0) 298.15    +4438+GHSERCR; 6000 N !
 PARAM BMAGN(HCP_A3,CR:VA;0) 298.15    -2.46; 6000 N !
 PARAM TC(HCP_A3,CR:VA;0) 298.15    -1109; 6000 N !
  
$ LAVES_C15(06Slu)
 PARAM G(LAVES_C15,CR:CR;0)  298.15  +3*GHSERCR+79200; 6000 N !

$ LAVES_C36(13Slu)
 PARAM G(LAVES_C36,CR:CR;0)  298.15   +3*GHSERCR+75600; 6000 N !

$ CR3SI_A15(REF91)
 PARAM G(CR3SI_A15,CR:CR;0) 298.15    +20000+10*T+4*GHSERCR; 6000 N !

$ CRSI2(REF91)
 PARAM G(CRSI2,CR:CR;0) 298.15    +10000-T+3*GHSERCR; 6000 N !

$ LAVES_C14(06Slu)
 PARAM G(LAVES_C14,CR:CR;0)  298.15  +3*GHSERCR+79800; 6000 N !

$ ---------------------------------  Cu  ----------------------------------
$ Date: Nov. 2023, Author: Sunyong Kwon

$ LIQUID(REF1)
 PARAM G(LIQUID,CU;0) 298.15    +5194.277+120.973331*T 
    -24.112392*T*LN(T)-.00265684*T**2+1.29223E-07*T**3+52478*T**(-1) 
    -5.8489E-21*T**7; 1357.77 Y
    -46.545+173.881484*T-31.38*T*LN(T); 3200 N !

$ ALCU_EPSILON(REF72)
 PARAM G(ALCU_EPSILON,CU:CU;0) 298.15    +2*GBCCCU; 6000 N !

$ ALCU_ETA(REF72)
 PARAM G(ALCU_ETA,CU:CU;0) 298.15    +2*GBCCCU; 6000 N !

$ BCC_A2(REF1)
 PARAM G(BCC_A2,CU:VA;0) 298.15    +GBCCCU; 6000 N !
 PARAM L(BCC_A2,CU,VA:VA;0) 298.15 +260000; 6000 N !

$ BCC_B2(REF1)
 PARAM G(BCC_B2,CU:CU;0) 298.15    +GBCCCU; 6000 N !

$ FCC_A1(REF1)
 PARAM G(FCC_A1,CU:VA;0) 298.15    +GHSERCU; 6000 N !

$ HCP_A3(REF1)
 PARAM G(HCP_A3,CU:VA;0) 298.15    +600+.2*T+GHSERCU; 6000 N !

$ LAVES_C15(REF20)
 PARAM G(LAVES_C15,CU:CU;0) 298.15    +21014.88+3*GHSERCU; 6000 N !

$ ---------------------------------  Fe  ----------------------------------
$ Date: Nov. 2023, Author: Sunyong Kwon

$ LIQUID(REF1)
 PARAM G(LIQUID,FE;0) 298.15    +12040.17-6.55843*T -3.67516E-21*T**7
    +GHSERFE; 1811 Y
    +14544.751-8.01055*T+GHSERFE-2.29603E+31*T**(-9); 6000 N !

$ BCC_A2(REF1,20LK11)
 PARAM G(BCC_A2,FE:VA;0) 298.15    +GHSERFE; 6000 N !
 PARAM BMAGN(BCC_A2,FE:VA;0) 298.15    2.22; 6000 N !
 PARAM TC(BCC_A2,FE:VA;0) 298.15    1043; 6000 N !
 PARAM L(BCC_A2,FE,VA:VA;0) 298.15 +207700; 6000 N !

$ BCC_B2(REF1)
 PARAM G(BCC_B2,FE:FE;0) 298.15    +GHSERFE; 6000 N !
 PARAM BMAGN(BCC_B2,FE:FE;0) 298.15    2.22; 6000 N !
 PARAM TC(BCC_B2,FE:FE;0) 298.15    1043; 6000 N !

$ CBCC_A12(REF1)
 PARAM G(CBCC_A12,FE:VA;0) 298.15    +4745+GHSERFE; 6000 N !

$ CUB_A13(REF1)
 PARAM G(CUB_A13,FE:VA;0) 298.15    +3745+GHSERFE; 6000 N !

$ FCC_A1(REF1)
$ PARAM G(FCC_A1,FE:VA;0) 298.15    -236.7+132.416*T -24.6643*T*LN(T)
$    -.00375752*T**2-5.8927E-08*T**3+77359*T**(-1); 1811 Y
$    -27097.396+300.25256*T-46*T*LN(T)+2.78854E+31*T**(-9); 6000 N !
 PARAM G(FCC_A1,FE:VA;0) 298.15 +GFEFCC; 6000 N !
 PARAM BMAGN(FCC_A1,FE:VA;0) 298.15    -2.1; 6000 N !
 PARAM TC(FCC_A1,FE:VA;0) 298.15    -201; 6000 N !

$ HCP_A3(REF1)
 PARAM G(HCP_A3,FE:VA;0) 298.15    -3705.78+12.591*T-1.15*T*LN(T) 
    +6.4E-04*T**2+GHSERFE; 1811 Y
    -3957.199+5.24951*T+4.9251E+30*T**(-9)+GHSERFE; 6000 N !

$ AL5FE4(REF76)
 PARAM G(AL5FE4,FE;0) 298.15    +5009.03+GHSERFE; 6000 N !

$ LAVES_C14(06Slu)
 PARAM G(LAVES_C14,FE:FE;0) 298.15  +3*C14FEFE; 6000 N !

$ LAVES_C15(13Slu)
 PARAM G(LAVES_C15,FE:FE;0) 298.15  +3*C15FEFE; 6000 N !

$ LAVES_C36(13Slu)
 PARAM G(LAVES_C36,FE:FE;0) 298.15   +3*C36FEFE; 6000 N !

$ ---------------------------------  Mg  ----------------------------------
$ Date: Nov. 2023, Author: Sunyong Kwon

$ LIQUID(REF1)
 PARAM G(LIQUID,MG;0) 298.15    +8202.243-8.83693*T+GHSERMG 
    -8.0176E-20*T**7; 923 Y
    +8690.316-9.392158*T+GHSERMG-1.038192E+28*T**(-9); 6000 N !

$ ALMG_A12(REF11,21LK10)
 PARAM G(ALMG_A12,MG:MG:MG;0)  298.15  
   +133469.6-87.319*T+29*GHSERMG; 6000 N !

$ BCC_A2(REF1)
 PARAM G(BCC_A2,MG:VA;0) 298.15    +3100-2.1*T+GHSERMG; 6000 N !
 PARAM L(BCC_A2,MG,VA:VA;0)           298.15 +66000+29*T; 6000 N !

$ CBCC_A12(REF1)
 PARAM G(CBCC_A12,MG:VA;0) 298.15    +4602.4-3.011*T+GHSERMG; 6000 N !

$ FCC_A1(REF1)
 PARAM G(FCC_A1,MG:VA;0) 298.15    +2600-.9*T+GHSERMG; 6000 N !

$ HCP_A3(REF1)
 PARAM G(HCP_A3,MG:VA;0) 298.15    +GHSERMG; 6000 N !

$ LAVES_C15(REF20)
 PARAM G(LAVES_C15,MG:MG;0) 298.15    +27359.33+3*GHSERMG; 6000 N !

$ MG24Y5(REF64)
 PARAM G(MG24Y5,MG:MG;0) 298.15    +44506.01+29*GHSERMG; 6000 N !

$ MGY_GAMMA(REF64)
 PARAM G(MGY_GAMMA,MG:MG;0) 298.15    +9891.48+2*GHSERMG; 6000 N !

$ ALLI(REF11)
 PARAM G(ALLI,MG:MG;0) 298.15    +2*GBCCMG; 6000 N !

$ ---------------------------------  Si  ----------------------------------
$ Date: Nov. 2023, Author: Sunyong Kwon

$ LIQUID(REF1)
 PARAM G(LIQUID,SI;0) 298.15    +50696.4-30.0994*T +2.09307E-21*T**7
        +GHSERSI; 1687 Y
        +49828.2-29.5591*T+4.20369E+30*T**(-9)+GHSERSI; 6000 N !

$ BCC_A2(REF1,20LK11)
 PARAM G(BCC_A2,SI:VA;0) 298.15    +47000-22.5*T+GHSERSI; 6000 N !
 PARAM L(BCC_A2,SI,VA:VA;0) 298.15 +200000; 6000 N !

$ BCC_B2(REF1)
 PARAM G(BCC_B2,SI:SI;0) 298.15    +GBCCSI; 6000 N !

$ CBCC_A12(REF1)
 PARAM G(CBCC_A12,SI:VA;0) 298.15    +50208-20.377*T+GHSERSI; 6000 N !

$ CUB_A13(REF1)
 PARAM G(CUB_A13,SI:VA;0) 298.15    +47279-20.377*T+GHSERSI; 6000 N !

$ DIAMOND_A4(REF1)
 PARAM G(DIAMOND_A4,SI;0) 298.15    +GHSERSI; 6000 N !

$ FCC_A1(REF1)
 PARAM G(FCC_A1,SI:VA;0) 298.15    +51000-21.8*T+GHSERSI; 6000 N !

$ HCP_A3(REF1)
 PARAM G(HCP_A3,SI:VA;0) 298.15    +49200-20.8*T+GHSERSI; 6000 N !

$ OMEGA(REF1) !
 PARAM G(OMEGA,ZR;0) 298.15    -8878.082+144.432234*T -26.8556*T*LN(T)
    -.002799446*T**2+38376*T**(-1); 2128 Y
    -29500.524+265.290858*T-42.144*T*LN(T)+7.17445E+31*T**(-9); 6000 N !

$ CRSI2(REF91)
 PARAM G(CRSI2,SI:SI;0) 298.15    +78860.26-15.77206*T
    +3*GHSERSI; 6000 N !

$ ---------------------------------  Zr  ----------------------------------
$ Date: Nov. 2023, Author: Sunyong Kwon

$ LIQUID(REF1)
 PARAM G(LIQUID,ZR;0) 130    +18147.703-9.080762*T +1.6275E-22*T**7
    +GHSERZR; 2128 Y
    +17804.649-8.91153*T+1.343E+31*T**(-9)+GHSERZR; 6000 N !

$ BCC_A2(REF1,01Din,20LK11)
$ PARAM G(BCC_A2,ZR:VA;0) 298.15    +7302.056-.70335*T -1.445606*T*LN(T)
$    +.004037826*T**2-9.7289735E-09*T**3-7.6142894E-11*T**4 -9737*T**(-1)
$    +GHSERZR; 2128 Y
$    -4620.034+1.55998*T+1.41035E+32*T**(-9); 6000 N !
 PARAM G(BCC_A2,ZR:VA;0)    298.15  +GBCCZR; 6000 N  !
 PARAM L(BCC_A2,ZR,VA:VA;0) 298.15 +244400; 6000 N  !

$ FCC_A1(REF1)
 PARAM G(FCC_A1,ZR:VA;0) 298.15    +7600-.9*T+GHSERZR; 6000 N !
 
$ HCP_A3(REF1)
 PARAM G(HCP_A3,ZR:VA;0) 298.15    +GHSERZR; 6000 N !

$ LAVES_C14(REF98)
$ PARAM G(LAVES_C14,ZR:ZR;0) 298.15    +15000+3*GHSERZR; 6000 N !

$ LAVES_C14(06Slu)
 PARAM G(LAVES_C14,ZR:ZR;0)  298.15  +3*C14ZRZR; 6000 N !

$ LAVES_C15(REF1) 
$ PARAM G(LAVES_C15,ZR:ZR;0) 298.15    +15000+3*GHSERZR; 6000 N !

$ LAVES_C15(06Slu) 
 PARAM G(LAVES_C15,ZR:ZR;0)  298.15  +3*C15ZRZR; 6000 N  !

$ LAVES_C36(REF98)
$ PARAM G(LAVES_C36,ZR:ZR;0) 298.15    +15000+3*GHSERZR; 6000 N !

$ LAVES_C36(13Slu)
 PARAM G(LAVES_C36,ZR:ZR;0)  298.15  +3*C36ZRZR; 6000 N !
$ <<<<<<<<<<<<<<<<<<<<<<<<<<<<<<<<<<<<<<<<<<<<<<<<<<<<<<<<<<<<<<<<<<<<<<<<<


$ >>>>>>>>>>>>>>>>>>>>>>>>>>>>>>>>>>>>>>>>>>>>>>>>>>>>>>>>>>>>>>>>>>>>>>>>>
$ PARAMs: Binary
$ ---------------------------------  Al-Cr  -------------------------------
$ Date: Nov. 2023, Author: Sunyong Kwon

$ LIQUID(REF8)
 PARAM L(LIQUID,AL,CR;0) 298.15    -29000; 6000 N !
 PARAM L(LIQUID,AL,CR;1) 298.15    -11000; 6000 N !

$ AL11CR2(REF8)
 PARAM G(AL11CR2,AL:AL:CR;0) 298.15    -175500+25.805*T +11*GHSERAL
    +2*GHSERCR; 6000 N !

$ AL13CR2(REF8)
 PARAM G(AL13CR2,AL:CR;0) 298.15    -174405+22.2*T+13*GHSERAL 
    +2*GHSERCR; 6000 N !

$ AL4CR(REF8)
 PARAM G(AL4CR,AL:CR;0) 298.15    -89025+19.05*T+4*GHSERAL 
    +GHSERCR; 6000 N !

$ AL8CR5_H(REF8)
 PARAM G(AL8CR5_H,AL:CR;0) 298.15    -147732-58.5*T+8*GHSERAL 
    +5*GHSERCR; 6000 N !

$ AL8CR5_L(REF8)
 PARAM G(AL8CR5_L,AL:CR;0) 298.15    -229515+8*GHSERAL
    +5*GHSERCR; 6000 N !
 
$ AL9CR4_H(REF8)
 PARAM G(AL9CR4_H,AL:CR;0) 298.15    -134433-56.16*T+9*GHSERAL 
    +4*GHSERCR; 6000 N !
 PARAM G(AL9CR4_L,AL:CR;0) 298.15    -230750+16.094*T+9*GHSERAL 
    +4*GHSERCR; 6000 N !
 
$ ALCR2(REF8)
 PARAM G(ALCR2,AL:CR;0) 298.15    -32700-8.79*T+GHSERAL 
    +2*GHSERCR; 6000 N !
 
$ BCC_A2(REF8)
 PARAM L(BCC_A2,AL,CR:VA;0) 298.15    -54900+10*T; 6000 N !
 
$ FCC_A1(REF8)
 PARAM L(FCC_A1,AL,CR:VA;0) 298.15    -45900+6*T; 6000 N !
 
$ LAVES_C15(REF0)
 PARAM G(LAVES_C15,AL:CR;0) 298.15   UN_ASS; 300 N !

$ ---------------------------------  Al-Cu  -------------------------------
$ Date: Nov. 2023, Author: Sunyong Kwon

$ LIQUID(REF72)
 PARAM L(LIQUID,AL,CU;0) 298.15    -66622+8.1*T; 6000 N !
 PARAM L(LIQUID,AL,CU;1) 298.15    +46800-90.8*T+10*T*LN(T); 6000 N !
 PARAM L(LIQUID,AL,CU;2) 298.15    -2812; 6000 N !
 
$ ALCU_DELTA(REF72)
 PARAM G(ALCU_DELTA,AL:CU;0) 298.15    -106700+3*T+2*GHSERAL 
    +3*GHSERCU; 6000 N !

$ ALCU_EPSILON(REF72)
 PARAM G(ALCU_EPSILON,AL:CU;0) 298.15    -36976+1.2*T+GHSERAL 
    +GHSERCU; 6000 N !

 PARAM L(ALCU_EPSILON,AL,CU:CU;0) 298.15    +7600-24*T; 6000 N !
 PARAM L(ALCU_EPSILON,AL,CU:CU;1) 298.15    -72000; 6000 N !

$ ALCU_ETA(REF72)
 PARAM G(ALCU_ETA,AL:CU;0) 298.15    -40560+3.14*T+GHSERAL 
    +GHSERCU; 6000 N !
 PARAM L(ALCU_ETA,AL,CU:CU;0) 298.15    -25740-20*T; 6000 N !

$ ALCU_PRIME(REF72)
 PARAM G(ALCU_PRIME,AL:CU;0) 298.15    -46500+6.5*T+2*GHSERAL 
    +GHSERCU; 6000 N !

$ ALCU_THETA(REF72)
 PARAM G(ALCU_THETA,AL:AL;0) 298.15    +3*GBCCAL; 6000 N !
 PARAM G(ALCU_THETA,AL:CU;0) 298.15    -47406+6.75*T+2*GHSERAL 
    +GHSERCU; 6000 N !
PARAM L(ALCU_THETA,AL:AL,CU;0) 298.15    2211; 6000 N !

$ ALCU_ZETA(REF72)
 PARAM G(ALCU_ZETA,AL:CU;0) 298.15    -420000+18*T+9*GHSERAL 
    +11*GHSERCU; 6000 N !

$ BCC_A2(REF72)
 PARAM L(BCC_A2,AL,CU:VA;0) 298.15    -73554+4*T; 6000 N !
 PARAM L(BCC_A2,AL,CU:VA;1) 298.15    +51500-11.84*T; 6000 N !


$ BCC_B2(REF0)
 PARAM G(BCC_B2,CU:AL;0) 298.15   UN_ASS; 300 N !
 PARAM G(BCC_B2,AL:CU;0) 298.15   UN_ASS; 300 N !


$ FCC_A1(REF72)
 PARAM L(FCC_A1,AL,CU:VA;0) 298.15    -53520+2*T; 6000 N !
 PARAM L(FCC_A1,AL,CU:VA;1) 298.15    +38590-2*T; 6000 N !
 PARAM L(FCC_A1,AL,CU:VA;2) 298.15    1170; 6000 N !


$ GAMMA_D83(REF72)
 PARAM G(GAMMA_D83,AL:AL:CU;0) 298.15    -300716+390*T-52*T*LN(T) 
    +5*GHSERAL+8*GHSERCU; 6000 N !
 PARAM G(GAMMA_D83,AL:CU:CU;0) 298.15    -280501+379.6*T -52*T*LN(T)
    +4*GHSERAL +9*GHSERCU; 6000 N !

$ GAMMA_H(REF72)
 PARAM G(GAMMA_H,AL:AL:CU;0) 298.15    -219258-45.5*T+5*GHSERAL 
    +8*GHSERCU; 6000 N !
 PARAM G(GAMMA_H,AL:CU:CU;0) 298.15    -200460-58.5*T+4*GHSERAL 
    +9*GHSERCU; 6000 N !

$ LAVES_C15(REF0)
 PARAM G(LAVES_C15,AL:CU;0) 298.15   UN_ASS; 300 N !

$ ---------------------------------  Al-Fe  -------------------------------
$ Date: Nov. 2023, Author: Sunyong Kwon

$ LIQUID(REF76)
 PARAM L(LIQUID,AL,FE;0) 298.15    -91976.5+22.1314*T; 6000 N !
 PARAM L(LIQUID,AL,FE;1) 298.15    -5672.58+4.8728*T; 6000 N !
 PARAM L(LIQUID,AL,FE;2) 298.15    121.9; 6000 N !

$ AL11MN4(REF76)
 PARAM G(AL11MN4,AL:FE;0) 298.15    -354702+103.031*T+11*GHSERAL 
    +4*GHSERMN; 6000 N !

$ AL12MN(REF76)
 PARAM G(AL12MN,AL:FE;0) 298.15    -105818+33.5848*T+12*GHSERAL 
    +GHSERMN; 6000 N !

$ AL13FE4(REF76)
 PARAM G(AL13FE4,AL:FE:AL;0) 298.15    -30714.4+7.44*T +.765*GHSERAL
    +.235*GHSERFE; 6000 N !
 PARAM G(AL13FE4,AL:FE:VA;0) 298.15    -27781.3+7.2566*T +.6275*GHSERAL
    +.235*GHSERFE; 6000 N !

$ AL2FE(REF76)
 PARAM G(AL2FE,AL:FE;0) 298.15    -98096.9+18.7503*T+2*GHSERAL 
    +GHSERFE; 6000 N !

$ AL5FE2(REF76)
 PARAM G(AL5FE2,AL:FE;0) 298.15    -228576+48.99503*T+5*GHSERAL 
    +2*GHSERFE; 6000 N !

$ AL5FE4(REF76)
 PARAM G(AL5FE4,AL,FE;0) 298.15    -131649+29.4833*T; 6000 N !
 PARAM G(AL5FE4,AL,FE;1) 298.15    -18619.5; 6000 N !

$ AL6MN(REF76)
 PARAM G(AL6MN,AL:FE;0) 298.15    -128100+35*T+6*GHSERAL
    +GHSERFE; 6000 N !

$ BCC_B2(REF76)
 PARAM G(BCC_B2,FE:AL;0) 298.15    -2*ALFEW1+.5*GHSERFE 
    +.5*GBCCAL+LALFEB0; 6000 N !
 PARAM G(BCC_B2,AL:FE;0) 298.15    -2*ALFEW1+.5*GHSERFE 
    +.5*GBCCAL+LALFEB0; 6000 N !
 PARAM L(BCC_B2,AL,FE:AL;0) 298.15    +LALFEB0+3*LALFEB1; 6000 N !
 PARAM L(BCC_B2,AL,FE:AL;1) 298.15    +LALFEB1; 6000 N !
 PARAM L(BCC_B2,AL:AL,FE;0) 298.15    +LALFEB0+3*LALFEB1; 6000 N !
 PARAM L(BCC_B2,AL:AL,FE;1) 298.15    +LALFEB1; 6000 N !
 PARAM L(BCC_B2,FE:AL,FE;0) 298.15    +LALFEB0-3*LALFEB1; 6000 N !
 PARAM L(BCC_B2,FE:AL,FE;1) 298.15    +LALFEB1; 6000 N !
 PARAM L(BCC_B2,AL,FE:FE;0) 298.15    +LALFEB0-3*LALFEB1; 6000 N !
 PARAM L(BCC_B2,AL,FE:FE;1) 298.15    +LALFEB1; 6000 N !
 PARAM BMAGN(BCC_B2,FE:AL;0) 298.15    1.11; 6000 N !
 PARAM BMAGN(BCC_B2,AL:FE;0) 298.15    1.11; 6000 N !
 PARAM TC(BCC_B2,FE:AL;0) 298.15    521.5; 6000 N !
 PARAM TC(BCC_B2,AL:FE;0) 298.15    521.5; 6000 N !
 PARAM TC(BCC_B2,AL,FE:AL;0) 298.15    189; 6000 N !
 PARAM TC(BCC_B2,AL,FE:AL;1) 298.15    63; 6000 N !
 PARAM TC(BCC_B2,AL:AL,FE;0) 298.15    189; 6000 N !
 PARAM TC(BCC_B2,AL:AL,FE;1) 298.15    63; 6000 N !
 PARAM TC(BCC_B2,FE:AL,FE;0) 298.15    -189; 6000 N !
 PARAM TC(BCC_B2,FE:AL,FE;1) 298.15    63; 6000 N !
 PARAM TC(BCC_B2,AL,FE:FE;0) 298.15    -189; 6000 N !
 PARAM TC(BCC_B2,AL,FE:FE;1) 298.15    63; 6000 N !
 
$ CBCC_A12(REF76)
 PARAM L(CBCC_A12,AL,FE:VA;0) 298.15    -114000+20*T; 6000 N !

$ FCC_A1(REF76)
 PARAM L(FCC_A1,AL,FE:VA;0) 298.15    -76066.1+18.6758*T; 6000 N !
 PARAM L(FCC_A1,AL,FE:VA;1) 298.15    +21167.4+1.3398*T; 6000 N !

$ HCP_A3(REF76)
 PARAM L(HCP_A3,AL,FE:VA;0) 298.15    -106903+20*T; 6000 N !

$ LAVES_C15()
 PARAM G(LAVES_C15,AL:FE;0)        298.15 +UN_ASS#;           6000 N !
